Route #1: 93 75
Route #2: 35 46 31
Route #3: 71 62 99 98 89
Route #4: 27 97 19
Route #5: 30 85 11 79
Route #6: 86 9 92
Route #7: 7 2 45 43 29 36 72 57
Route #8: 39 10 18
Route #9: 8 17
Route #10: 5 12 58
Route #11: 59 60 82
Route #12: 20 41 22 15
Route #13: 100 61 23
Route #14: 14 49 6 37 87
Route #15: 25 65 78 42 28
Route #16: 66 84 90 68
Route #17: 1 70 54
Route #18: 32 33 53 73 95 24
Route #19: 3 77 63
Route #20: 74 13 4
Route #21: 83 51 81
Route #22: 34 64 96 48 26 47 38
Route #23: 44 67 88 40
Route #24: 21 56 94 80
Route #25: 76 55 16 69
Route #26: 50 91 52
Cost 27591.0000
Time 16.0009